414,270
441,284
751,309
977,452
1137,554
830,700
737,761
629,478
685,435
690,434
694,432
699,463
729,371
707,419
718,520
787,512
822,600
948,542
861,406
804,237
450,-48
609,354
663,463
321,406
326,350
621,406
1095,341
1194,240
956,131
598,150
765,-127
1045,670
548,474
558,575
200,651
542,833
639,448
654,491
611,503
